<number of tasks>
45

<cycle time>
69

<task times>
1 9
2 9
3 10
4 10
5 17
6 17
7 13
8 13
9 20
10 20
11 10
12 11
13 6
14 22
15 11
16 19
17 12
18 3
19 7
20 4
21 55
22 14
23 27
24 29
25 26
26 6
27 5
28 24
29 4
30 5
31 7
32 4
33 15
34 3
35 7
36 9
37 4
38 7
39 5
40 4
41 21
42 12
43 6
44 5
45 5

<precedence relations>
1,3
1,7
2,4
2,8
3,5
4,6
5,9
6,10
7,9
7,14
8,10
8,14
9,41
10,41
11,13
12,13
12,37
13,14
13,15
14,17
14,25
14,29
14,30
14,31
14,32
15,16
15,18
15,23
15,24
16,19
17,26
17,27
18,19
19,20
19,33
20,21
21,22
22,28
23,33
24,33
25,26
26,38
27,28
27,33
28,38
29,41
30,41
31,41
32,41
33,34
33,35
33,36
34,38
35,40
36,38
37,43
38,40
39,41
40,41
41,42
42,44
42,45

<setup times forward>
1,3:4
1,4:4
1,6:2
1,8:4
1,10:1
1,16:2
1,18:4
1,19:1
1,20:1
1,21:3
1,22:1
1,23:1
1,24:1
1,37:2
1,39:1
1,43:1
2,3:4
2,4:4
2,5:2
2,8:4
2,9:1
2,16:2
2,18:4
2,19:1
2,20:1
2,21:3
2,22:1
2,23:1
2,24:1
2,37:2
2,39:1
2,43:1
3,2:4
3,5:6
3,6:6
3,7:4
3,10:3
3,11:4
3,12:4
3,13:4
3,15:4
3,16:6
3,17:6
3,19:3
3,20:3
3,21:7
3,22:5
3,23:3
3,24:3
3,25:3
3,26:9
3,27:7
3,28:5
3,29:7
3,30:7
3,33:5
3,34:5
3,35:5
3,36:9
3,37:6
3,38:9
3,39:3
3,40:9
3,43:5
4,1:4
4,5:6
4,6:6
4,7:4
4,9:3
4,11:4
4,12:4
4,13:4
4,15:4
4,16:6
4,17:6
4,19:3
4,20:3
4,21:7
4,22:5
4,23:3
4,24:3
4,25:3
4,26:9
4,27:7
4,28:5
4,29:7
4,30:7
4,33:5
4,34:5
4,35:5
4,36:9
4,37:6
4,38:9
4,39:3
4,40:9
4,43:5
5,2:2
5,4:6
5,7:2
5,8:6
5,9:3
5,10:3
5,11:2
5,12:2
5,13:2
5,14:6
5,15:2
5,18:6
5,19:3
5,20:3
5,21:1
5,22:1
5,23:3
5,24:3
5,25:3
5,26:3
5,27:1
5,28:1
5,29:1
5,30:1
5,31:6
5,32:6
5,33:1
5,34:1
5,35:1
5,36:3
5,38:3
5,39:3
5,40:3
5,43:1
6,1:2
6,3:6
6,7:2
6,8:6
6,9:3
6,10:3
6,11:2
6,12:2
6,13:2
6,14:6
6,15:2
6,18:6
6,19:3
6,20:3
6,21:1
6,22:1
6,23:3
6,24:3
6,25:3
6,26:3
6,27:1
6,28:1
6,29:1
6,30:1
6,31:6
6,32:6
6,33:1
6,34:1
6,35:1
6,36:3
6,38:3
6,39:3
6,40:3
6,43:1
7,3:4
7,4:4
7,5:2
7,6:2
7,8:4
7,9:1
7,10:1
7,14:4
7,16:2
7,18:4
7,19:1
7,20:1
7,21:3
7,22:1
7,23:1
7,24:1
7,37:2
7,39:1
7,43:1
8,1:4
8,5:6
8,6:6
8,7:4
8,9:3
8,10:3
8,11:4
8,12:4
8,13:4
8,15:4
8,16:6
8,19:3
8,20:3
8,21:7
8,22:5
8,23:3
8,24:3
8,37:6
8,39:3
8,43:5
9,2:1
9,4:3
9,6:3
9,8:3
9,11:1
9,12:1
9,13:1
9,14:3
9,15:1
9,16:3
9,17:3
9,18:3
9,21:4
9,22:2
9,26:6
9,27:4
9,28:2
9,29:4
9,30:4
9,31:3
9,32:3
9,33:2
9,34:2
9,35:2
9,36:6
9,37:3
9,38:6
9,40:6
9,41:6
9,43:2
10,1:1
10,3:3
10,5:3
10,7:1
10,11:1
10,12:1
10,13:1
10,14:3
10,15:1
10,16:3
10,17:3
10,18:3
10,21:4
10,22:2
10,26:6
10,27:4
10,28:2
10,29:4
10,30:4
10,31:3
10,32:3
10,33:2
10,34:2
10,35:2
10,36:6
10,37:3
10,38:6
10,40:6
10,41:6
10,43:2
11,3:4
11,4:4
11,5:2
11,6:2
11,8:4
11,9:1
11,10:1
11,37:2
11,39:1
11,43:1
12,3:4
12,4:4
12,5:2
12,6:2
12,8:4
12,9:1
12,10:1
12,37:2
12,39:1
13,3:4
13,4:4
13,5:2
13,6:2
13,8:4
13,9:1
13,10:1
13,14:4
13,37:2
13,39:1
13,43:1
14,5:6
14,6:6
14,9:3
14,10:3
14,15:4
14,16:6
14,17:6
14,19:3
14,20:3
14,21:7
14,22:5
14,23:3
14,24:3
14,25:3
14,29:7
14,30:7
14,37:6
14,39:3
14,43:5
15,3:4
15,4:4
15,5:2
15,6:2
15,8:4
15,9:1
15,10:1
15,14:4
15,16:2
15,17:2
15,18:4
15,23:1
15,24:1
15,25:1
15,26:5
15,27:3
15,29:3
15,30:3
15,31:4
15,32:4
15,37:2
15,39:1
15,43:1
16,1:2
16,2:2
16,3:6
16,4:6
16,7:2
16,8:6
16,9:3
16,10:3
16,14:6
16,18:6
16,19:3
16,23:3
16,24:3
16,25:3
16,26:3
16,27:1
16,29:1
16,30:1
16,31:6
16,32:6
16,39:3
16,43:1
17,3:6
17,4:6
17,9:3
17,10:3
17,15:2
17,18:6
17,19:3
17,20:3
17,21:1
17,22:1
17,23:3
17,24:3
17,25:3
17,26:3
17,27:1
17,29:1
17,30:1
17,31:6
17,32:6
17,39:3
17,43:1
18,1:4
18,2:4
18,5:6
18,6:6
18,7:4
18,9:3
18,10:3
18,16:6
18,17:6
18,19:3
18,23:3
18,24:3
18,25:3
18,26:9
18,27:7
18,29:7
18,30:7
18,37:6
18,39:3
18,43:5
19,1:1
19,2:1
19,3:3
19,4:3
19,5:3
19,6:3
19,7:1
19,8:3
19,14:3
19,17:3
19,26:6
19,27:4
19,29:4
19,30:4
19,31:3
19,32:3
19,33:2
19,37:3
19,43:2
20,1:1
20,2:1
20,3:3
20,4:3
20,5:3
20,6:3
20,7:1
20,8:3
20,14:3
20,17:3
20,21:4
20,26:6
20,27:4
20,29:4
20,30:4
20,31:3
20,32:3
20,33:2
20,34:2
20,35:2
20,36:6
20,37:3
20,43:2
21,1:3
21,2:3
21,3:7
21,4:7
21,5:1
21,6:1
21,7:3
21,8:7
21,9:4
21,10:4
21,14:7
21,17:1
21,22:2
21,23:4
21,24:4
21,25:4
21,26:2
21,31:7
21,32:7
21,33:2
21,34:2
21,35:2
21,36:2
21,37:1
21,39:4
21,43:2
22,1:1
22,2:1
22,3:5
22,4:5
22,5:1
22,6:1
22,7:1
22,8:5
22,9:2
22,10:2
22,14:5
22,17:1
22,23:2
22,24:2
22,25:2
22,26:4
22,27:2
22,29:2
22,30:2
22,31:5
22,32:5
22,36:4
22,37:1
22,39:2
23,1:1
23,2:1
23,3:3
23,4:3
23,5:3
23,6:3
23,7:1
23,8:3
23,14:3
23,16:3
23,17:3
23,18:3
23,21:4
23,22:2
23,26:6
23,27:4
23,28:2
23,29:4
23,30:4
23,31:3
23,32:3
23,33:2
23,37:3
23,43:2
24,1:1
24,2:1
24,3:3
24,4:3
24,5:3
24,6:3
24,7:1
24,8:3
24,14:3
24,16:3
24,17:3
24,18:3
24,21:4
24,22:2
24,26:6
24,27:4
24,28:2
24,29:4
24,30:4
24,31:3
24,32:3
24,33:2
24,37:3
24,43:2
25,3:3
25,4:3
25,5:3
25,6:3
25,15:1
25,16:3
25,17:3
25,18:3
25,21:4
25,22:2
25,26:6
25,27:4
25,28:2
25,29:4
25,30:4
25,31:3
25,32:3
25,33:2
25,34:2
25,35:2
25,36:6
25,37:3
25,43:2
26,3:9
26,4:9
26,5:3
26,6:3
26,9:6
26,10:6
26,15:5
26,16:3
26,18:9
26,19:6
26,20:6
26,21:2
26,22:4
26,23:6
26,24:6
26,27:2
26,28:4
26,29:2
26,30:2
26,31:9
26,32:9
26,33:4
26,34:4
26,35:4
26,37:3
26,39:6
26,43:4
27,3:7
27,4:7
27,5:1
27,6:1
27,9:4
27,10:4
27,15:3
27,16:1
27,18:7
27,19:4
27,20:4
27,22:2
27,23:4
27,24:4
27,25:4
27,26:2
27,28:2
27,31:7
27,32:7
27,33:2
27,37:1
27,39:4
27,43:2
28,3:5
28,4:5
28,5:1
28,6:1
28,9:2
28,10:2
28,23:2
28,24:2
28,25:2
28,26:4
28,29:2
28,30:2
28,31:5
28,32:5
28,36:4
28,37:1
28,38:4
28,39:2
29,3:7
29,4:7
29,5:1
29,6:1
29,9:4
29,10:4
29,15:3
29,16:1
29,17:1
29,18:7
29,19:4
29,20:4
29,22:2
29,23:4
29,24:4
29,25:4
29,26:2
29,28:2
29,31:7
29,32:7
29,33:2
29,34:2
29,35:2
29,36:2
29,37:1
29,38:2
29,39:4
29,40:2
29,41:2
29,43:2
30,3:7
30,4:7
30,5:1
30,6:1
30,9:4
30,10:4
30,15:3
30,16:1
30,17:1
30,18:7
30,19:4
30,20:4
30,22:2
30,23:4
30,24:4
30,25:4
30,26:2
30,28:2
30,31:7
30,32:7
30,33:2
30,34:2
30,35:2
30,36:2
30,37:1
30,38:2
30,39:4
30,40:2
30,41:2
30,43:2
31,5:6
31,6:6
31,9:3
31,10:3
31,15:4
31,16:6
31,17:6
31,19:3
31,20:3
31,21:7
31,22:5
31,23:3
31,24:3
31,25:3
31,26:9
31,27:7
31,28:5
31,29:7
31,30:7
31,33:5
31,34:5
31,35:5
31,36:9
31,37:6
31,38:9
31,39:3
31,40:9
31,41:9
31,43:5
32,5:6
32,6:6
32,9:3
32,10:3
32,15:4
32,16:6
32,17:6
32,19:3
32,20:3
32,21:7
32,22:5
32,23:3
32,24:3
32,25:3
32,26:9
32,27:7
32,28:5
32,29:7
32,30:7
32,33:5
32,34:5
32,35:5
32,36:9
32,37:6
32,38:9
32,39:3
32,40:9
32,41:9
32,43:5
33,3:5
33,4:5
33,5:1
33,6:1
33,9:2
33,10:2
33,20:2
33,21:2
33,25:2
33,26:4
33,29:2
33,30:2
33,31:5
33,32:5
33,36:4
33,37:1
33,39:2
34,3:5
34,4:5
34,5:1
34,6:1
34,9:2
34,10:2
34,20:2
34,21:2
34,25:2
34,26:4
34,29:2
34,30:2
34,31:5
34,32:5
34,36:4
34,37:1
34,38:4
34,39:2
35,3:5
35,4:5
35,5:1
35,6:1
35,9:2
35,10:2
35,20:2
35,21:2
35,25:2
35,26:4
35,29:2
35,30:2
35,31:5
35,32:5
35,36:4
35,37:1
35,38:4
35,39:2
35,40:4
36,3:9
36,4:9
36,5:3
36,6:3
36,9:6
36,10:6
36,20:6
36,21:2
36,22:4
36,25:6
36,28:4
36,29:2
36,30:2
36,31:9
36,32:9
36,34:4
36,35:4
36,37:3
36,39:6
36,43:4
37,1:2
37,2:2
37,3:6
37,4:6
37,7:2
37,8:6
37,9:3
37,10:3
37,11:2
37,13:2
37,14:6
37,15:2
37,18:6
37,19:3
37,20:3
37,21:1
37,22:1
37,23:3
37,24:3
37,25:3
37,26:3
37,27:1
37,28:1
37,29:1
37,30:1
37,31:6
37,32:6
37,33:1
37,34:1
37,35:1
37,36:3
37,38:3
37,39:3
37,40:3
37,41:3
37,42:3
37,43:1
37,44:3
37,45:3
38,3:9
38,4:9
38,5:3
38,6:3
38,9:6
38,10:6
38,29:2
38,30:2
38,31:9
38,32:9
38,35:4
38,37:3
38,39:6
38,43:4
39,1:1
39,2:1
39,3:3
39,4:3
39,5:3
39,6:3
39,7:1
39,8:3
39,11:1
39,12:1
39,13:1
39,14:3
39,15:1
39,16:3
39,17:3
39,18:3
39,21:4
39,22:2
39,26:6
39,27:4
39,28:2
39,29:4
39,30:4
39,31:3
39,32:3
39,33:2
39,34:2
39,35:2
39,36:6
39,37:3
39,38:6
39,40:6
39,41:6
39,43:2
40,3:9
40,4:9
40,5:3
40,6:3
40,9:6
40,10:6
40,29:2
40,30:2
40,31:9
40,32:9
40,37:3
40,39:6
40,43:4
41,37:3
41,43:4
42,37:3
42,43:4
43,1:1
43,2:1
43,3:5
43,4:5
43,5:1
43,6:1
43,7:1
43,8:5
43,9:2
43,10:2
43,11:1
43,13:1
43,14:5
43,15:1
43,16:1
43,17:1
43,18:5
43,19:2
43,20:2
43,21:2
43,23:2
43,24:2
43,25:2
43,26:4
43,27:2
43,29:2
43,30:2
43,31:5
43,32:5
43,36:4
43,38:4
43,39:2
43,40:4
43,41:4
43,42:4
43,44:4
43,45:4
44,37:3
44,43:4
45,37:3
45,43:4

<setup times backward>
1,6:2
1,16:2
1,21:3
1,22:1
1,37:2
1,43:1
2,5:2
2,16:2
2,21:3
2,22:1
2,37:2
2,43:1
3,1:4
3,2:4
3,6:6
3,7:4
3,10:3
3,11:4
3,12:4
3,13:4
3,15:4
3,16:6
3,17:6
3,19:3
3,20:3
3,21:7
3,22:5
3,23:3
3,24:3
3,25:3
3,26:9
3,27:7
3,28:5
3,29:7
3,30:7
3,33:5
3,34:5
3,35:5
3,36:9
3,37:6
3,38:9
3,39:3
3,40:9
3,43:5
4,1:4
4,2:4
4,5:6
4,7:4
4,9:3
4,11:4
4,12:4
4,13:4
4,15:4
4,16:6
4,17:6
4,19:3
4,20:3
4,21:7
4,22:5
4,23:3
4,24:3
4,25:3
4,26:9
4,27:7
4,28:5
4,29:7
4,30:7
4,33:5
4,34:5
4,35:5
4,36:9
4,37:6
4,38:9
4,39:3
4,40:9
4,43:5
5,21:1
5,26:3
5,27:1
5,29:1
5,30:1
5,36:3
5,38:3
5,40:3
6,21:1
6,26:3
6,27:1
6,29:1
6,30:1
6,36:3
6,38:3
6,40:3
7,5:2
7,6:2
7,16:2
7,21:3
7,22:1
7,37:2
7,43:1
8,1:4
8,2:4
8,5:6
8,6:6
8,7:4
8,9:3
8,11:4
8,12:4
8,13:4
8,15:4
8,16:6
8,19:3
8,20:3
8,21:7
8,22:5
8,23:3
8,24:3
8,37:6
8,39:3
8,43:5
9,1:1
9,2:1
9,5:3
9,6:3
9,7:1
9,11:1
9,12:1
9,13:1
9,15:1
9,16:3
9,17:3
9,21:4
9,22:2
9,26:6
9,27:4
9,28:2
9,29:4
9,30:4
9,33:2
9,34:2
9,35:2
9,36:6
9,37:3
9,38:6
9,40:6
9,43:2
10,1:1
10,2:1
10,5:3
10,6:3
10,7:1
10,11:1
10,12:1
10,13:1
10,15:1
10,16:3
10,17:3
10,21:4
10,22:2
10,26:6
10,27:4
10,28:2
10,29:4
10,30:4
10,33:2
10,34:2
10,35:2
10,36:6
10,37:3
10,38:6
10,40:6
10,43:2
11,5:2
11,6:2
11,37:2
11,43:1
12,5:2
12,6:2
13,5:2
13,6:2
13,37:2
13,43:1
14,1:4
14,2:4
14,5:6
14,6:6
14,7:4
14,9:3
14,10:3
14,11:4
14,12:4
14,13:4
14,15:4
14,16:6
14,19:3
14,20:3
14,21:7
14,22:5
14,23:3
14,24:3
14,37:6
14,39:3
14,43:5
15,5:2
15,6:2
15,17:2
15,26:5
15,27:3
15,29:3
15,30:3
15,37:2
15,43:1
16,26:3
16,27:1
16,29:1
16,30:1
17,21:1
17,29:1
17,30:1
18,1:4
18,2:4
18,5:6
18,6:6
18,7:4
18,9:3
18,10:3
18,11:4
18,12:4
18,13:4
18,15:4
18,16:6
18,17:6
18,23:3
18,24:3
18,25:3
18,26:9
18,27:7
18,29:7
18,30:7
18,37:6
18,39:3
18,43:5
19,1:1
19,2:1
19,5:3
19,6:3
19,7:1
19,11:1
19,12:1
19,13:1
19,15:1
19,16:3
19,17:3
19,26:6
19,27:4
19,29:4
19,30:4
19,37:3
19,43:2
20,1:1
20,2:1
20,5:3
20,6:3
20,7:1
20,11:1
20,12:1
20,13:1
20,15:1
20,16:3
20,17:3
20,26:6
20,27:4
20,29:4
20,30:4
20,33:2
20,34:2
20,35:2
20,36:6
20,37:3
20,43:2
21,26:2
21,36:2
22,5:1
22,6:1
22,16:1
22,17:1
22,21:2
22,26:4
22,27:2
22,29:2
22,30:2
22,36:4
22,37:1
23,1:1
23,2:1
23,5:3
23,6:3
23,7:1
23,11:1
23,12:1
23,13:1
23,15:1
23,16:3
23,17:3
23,21:4
23,22:2
23,26:6
23,27:4
23,28:2
23,29:4
23,30:4
23,37:3
23,43:2
24,1:1
24,2:1
24,5:3
24,6:3
24,7:1
24,11:1
24,12:1
24,13:1
24,15:1
24,16:3
24,17:3
24,21:4
24,22:2
24,26:6
24,27:4
24,28:2
24,29:4
24,30:4
24,37:3
24,43:2
25,1:1
25,2:1
25,5:3
25,6:3
25,7:1
25,11:1
25,12:1
25,13:1
25,15:1
25,16:3
25,17:3
25,21:4
25,22:2
25,27:4
25,28:2
25,29:4
25,30:4
25,33:2
25,34:2
25,35:2
25,36:6
25,37:3
25,43:2
27,26:2
28,5:1
28,6:1
28,16:1
28,17:1
28,21:2
28,26:4
28,27:2
28,29:2
28,30:2
28,36:4
28,37:1
29,26:2
29,36:2
29,38:2
29,40:2
30,26:2
30,36:2
30,38:2
30,40:2
31,1:4
31,2:4
31,5:6
31,6:6
31,7:4
31,9:3
31,10:3
31,11:4
31,12:4
31,13:4
31,15:4
31,16:6
31,17:6
31,19:3
31,20:3
31,21:7
31,22:5
31,23:3
31,24:3
31,25:3
31,26:9
31,27:7
31,28:5
31,29:7
31,30:7
31,33:5
31,34:5
31,35:5
31,36:9
31,37:6
31,38:9
31,39:3
31,40:9
31,43:5
32,1:4
32,2:4
32,5:6
32,6:6
32,7:4
32,9:3
32,10:3
32,11:4
32,12:4
32,13:4
32,15:4
32,16:6
32,17:6
32,19:3
32,20:3
32,21:7
32,22:5
32,23:3
32,24:3
32,25:3
32,26:9
32,27:7
32,28:5
32,29:7
32,30:7
32,33:5
32,34:5
32,35:5
32,36:9
32,37:6
32,38:9
32,39:3
32,40:9
32,43:5
33,5:1
33,6:1
33,16:1
33,17:1
33,21:2
33,26:4
33,27:2
33,29:2
33,30:2
33,37:1
34,5:1
34,6:1
34,16:1
34,17:1
34,21:2
34,26:4
34,27:2
34,29:2
34,30:2
34,36:4
34,37:1
35,5:1
35,6:1
35,16:1
35,17:1
35,21:2
35,26:4
35,27:2
35,29:2
35,30:2
35,36:4
35,37:1
35,38:4
37,21:1
37,26:3
37,27:1
37,29:1
37,30:1
37,36:3
37,38:3
37,40:3
37,41:3
37,42:3
37,44:3
37,45:3
39,1:1
39,2:1
39,5:3
39,6:3
39,7:1
39,11:1
39,12:1
39,13:1
39,15:1
39,16:3
39,17:3
39,21:4
39,22:2
39,26:6
39,27:4
39,28:2
39,29:4
39,30:4
39,33:2
39,34:2
39,35:2
39,36:6
39,37:3
39,38:6
39,40:6
39,43:2
43,5:1
43,6:1
43,16:1
43,17:1
43,21:2
43,26:4
43,27:2
43,29:2
43,30:2
43,36:4
43,37:1
43,38:4
43,40:4
43,41:4
43,42:4
43,44:4
43,45:4

<end>

<optimal SALBP-1 value>
8


<rand seed>
467321153

